c uprop, v00.0, 
c reading from data/prog356.c.cnf
c done reading: 0.00276
p cnf 182 816
-87 -108 0
-87 -104 0
87 104 108 0
-81 104 108 0
-81 -104 -108 0
81 104 -108 0
81 -104 108 0
87 -99 0
-97 -99 0
-87 97 99 0
-87 -92 97 0
87 -92 -97 0
87 92 97 0
-87 92 -97 0
-88 99 0
-85 -88 0
85 88 -99 0
-83 85 -99 0
-83 -85 99 0
83 85 99 0
83 -85 -99 0
-82 88 0
-79 -82 0
79 82 -88 0
79 -88 -106 0
-79 88 -106 0
79 88 106 0
-79 -88 106 0
82 -110 0
-101 -110 0
-82 101 110 0
-82 101 -111 0
82 -101 -111 0
82 101 111 0
-82 -101 111 0
110 -112 0
-94 -112 0
94 -110 112 0
94 -110 -113 0
-94 110 -113 0
94 110 113 0
-94 -110 113 0
112 -114 0
-90 -114 0
90 -112 114 0
90 -112 -115 0
-90 112 -115 0
90 112 115 0
-90 -112 115 0
104 -116 0
108 -116 0
-104 -108 116 0
-104 -108 -117 0
104 108 -117 0
-104 108 117 0
104 -108 117 0
-97 -104 118 0
-97 -116 118 0
-104 -116 118 0
97 104 -118 0
97 116 -118 0
104 116 -118 0
97 -118 -119 0
104 -118 -119 0
116 -118 -119 0
-97 118 119 0
-104 118 119 0
-116 118 119 0
-97 -104 -116 119 0
97 104 116 -119 0
-85 -97 120 0
-85 -118 120 0
-97 -118 120 0
85 97 -120 0
85 118 -120 0
97 118 -120 0
85 -120 -121 0
97 -120 -121 0
118 -120 -121 0
-85 120 121 0
-97 120 121 0
-118 120 121 0
-85 -97 -118 121 0
85 97 118 -121 0
-79 -85 122 0
-79 -120 122 0
-85 -120 122 0
79 85 -122 0
79 120 -122 0
85 120 -122 0
-77 79 -122 0
-77 85 -122 0
-77 120 -122 0
77 -79 122 0
77 -85 122 0
77 -120 122 0
77 -79 -85 -120 0
-77 79 85 120 0
76 -79 -101 0
76 -101 -122 0
76 -79 -122 0
-76 79 101 0
-76 101 122 0
-76 79 122 0
-75 -76 101 0
-75 -76 79 0
-75 -76 122 0
75 76 -101 0
75 76 -79 0
75 76 -122 0
75 -79 -101 -122 0
-75 79 101 122 0
74 -94 -101 0
74 -76 -94 0
74 -76 -101 0
-74 94 101 0
-74 76 94 0
-74 76 101 0
-73 -74 94 0
-73 -74 101 0
-73 -74 76 0
73 74 -94 0
73 74 -101 0
73 74 -76 0
73 -76 -94 -101 0
-73 76 94 101 0
72 -90 -94 0
72 -74 -90 0
72 -74 -94 0
-72 90 94 0
-72 74 90 0
-72 74 94 0
-72 90 -107 0
-72 94 -107 0
-72 74 -107 0
72 -90 107 0
72 -94 107 0
72 -74 107 0
-74 -90 -94 107 0
74 90 94 -107 0
90 -103 0
72 -103 0
-72 -90 103 0
-72 -90 -96 0
72 90 -96 0
72 -90 96 0
-72 90 96 0
-84 119 0
-84 108 0
84 -108 -119 0
-78 -108 -119 0
-78 108 119 0
78 108 -119 0
78 -108 119 0
100 -104 -121 0
-84 100 -121 0
-84 100 -104 0
-100 104 121 0
84 -100 121 0
84 -100 104 0
-93 -100 121 0
-93 -100 104 0
84 -93 -100 0
93 100 -121 0
93 100 -104 0
-84 93 100 0
-84 93 -104 -121 0
84 -93 104 121 0
-77 89 -97 0
-77 89 -100 0
89 -97 -100 0
77 -89 97 0
77 -89 100 0
-89 97 100 0
-71 77 -89 0
-71 -89 97 0
-71 -89 100 0
71 -77 89 0
71 89 -97 0
71 89 -100 0
71 -77 -97 -100 0
-71 77 97 100 0
70 -75 -85 0
70 -75 -89 0
70 -85 -89 0
-70 75 85 0
-70 75 89 0
-70 85 89 0
-69 -70 75 0
-69 -70 85 0
-69 -70 89 0
69 70 -75 0
69 70 -85 0
69 70 -89 0
69 -75 -85 -89 0
-69 75 85 89 0
68 -73 -79 0
68 -70 -73 0
68 -70 -79 0
-68 73 79 0
-68 70 73 0
-68 70 79 0
-67 -68 73 0
-67 -68 79 0
-67 -68 70 0
67 68 -73 0
67 68 -79 0
67 68 -70 0
67 -70 -73 -79 0
-67 70 73 79 0
66 -101 -107 0
66 -68 -107 0
66 -68 -101 0
-66 101 107 0
-66 68 107 0
-66 68 101 0
-65 -66 107 0
-65 -66 101 0
-65 -66 68 0
65 66 -107 0
65 66 -101 0
65 66 -68 0
65 -68 -101 -107 0
-65 68 101 107 0
64 -94 -96 0
64 -66 -96 0
64 -66 -94 0
-64 94 96 0
-64 66 96 0
-64 66 94 0
-63 -64 96 0
-63 -64 94 0
-63 -64 66 0
63 64 -96 0
63 64 -94 0
63 64 -66 0
63 -66 -94 -96 0
-63 66 94 96 0
62 -90 -103 0
62 -64 -103 0
62 -64 -90 0
-62 90 103 0
-62 64 103 0
-62 64 90 0
-61 -62 103 0
-61 -62 90 0
-61 -62 64 0
61 62 -103 0
61 62 -90 0
61 62 -64 0
61 -64 -90 -103 0
-61 64 90 103 0
-60 93 0
-60 108 0
60 -93 -108 0
-59 -93 -108 0
-59 93 108 0
59 -93 108 0
59 93 -108 0
58 -71 -104 0
58 -60 -71 0
58 -60 -104 0
-58 71 104 0
-58 60 71 0
-58 60 104 0
-57 -58 71 0
-57 -58 104 0
-57 -58 60 0
57 58 -71 0
57 58 -104 0
57 58 -60 0
57 -60 -71 -104 0
-57 60 71 104 0
56 -69 -97 0
56 -58 -69 0
56 -58 -97 0
-56 69 97 0
-56 58 69 0
-56 58 97 0
-56 69 -123 0
-56 97 -123 0
-56 58 -123 0
56 -69 123 0
56 -97 123 0
56 -58 123 0
-58 -69 -97 123 0
58 69 97 -123 0
-67 -85 124 0
-56 -67 124 0
-56 -85 124 0
67 85 -124 0
56 67 -124 0
56 85 -124 0
67 -124 -125 0
85 -124 -125 0
56 -124 -125 0
-67 124 125 0
-85 124 125 0
-56 124 125 0
-56 -67 -85 125 0
56 67 85 -125 0
-65 -79 126 0
-65 -124 126 0
-79 -124 126 0
65 79 -126 0
65 124 -126 0
79 124 -126 0
65 -126 -127 0
79 -126 -127 0
124 -126 -127 0
-65 126 127 0
-79 126 127 0
-124 126 127 0
-65 -79 -124 127 0
65 79 124 -127 0
-63 -101 128 0
-63 -126 128 0
-101 -126 128 0
63 101 -128 0
63 126 -128 0
101 126 -128 0
63 -128 -129 0
101 -128 -129 0
126 -128 -129 0
-63 128 129 0
-101 128 129 0
-126 128 129 0
-63 -101 -126 129 0
63 101 126 -129 0
-61 -94 130 0
-61 -128 130 0
-94 -128 130 0
61 94 -130 0
61 128 -130 0
94 128 -130 0
61 -130 -131 0
94 -130 -131 0
128 -130 -131 0
-61 130 131 0
-94 130 131 0
-128 130 131 0
-61 -94 -128 131 0
61 94 128 -131 0
-62 -90 132 0
-62 -130 132 0
-90 -130 132 0
62 90 -132 0
62 130 -132 0
90 130 -132 0
62 -132 -133 0
90 -132 -133 0
130 -132 -133 0
-62 132 133 0
-90 132 133 0
-130 132 133 0
-62 -90 -130 133 0
62 90 130 -133 0
123 -134 0
108 -134 0
-108 -123 134 0
-108 -123 -135 0
108 123 -135 0
108 -123 135 0
-108 123 135 0
-104 -125 136 0
-125 -134 136 0
-104 -134 136 0
104 125 -136 0
125 134 -136 0
104 134 -136 0
125 -136 -137 0
104 -136 -137 0
134 -136 -137 0
-125 136 137 0
-104 136 137 0
-134 136 137 0
-104 -125 -134 137 0
104 125 134 -137 0
-97 -127 138 0
-127 -136 138 0
-97 -136 138 0
97 127 -138 0
127 136 -138 0
97 136 -138 0
127 -138 -139 0
97 -138 -139 0
136 -138 -139 0
-127 138 139 0
-97 138 139 0
-136 138 139 0
-97 -127 -136 139 0
97 127 136 -139 0
-85 -129 140 0
-129 -138 140 0
-85 -138 140 0
85 129 -140 0
129 138 -140 0
85 138 -140 0
-129 140 0
-85 140 0
-138 140 0
-85 -129 -138 0
-79 -131 141 0
-131 -140 141 0
-79 -140 141 0
79 131 -141 0
131 140 -141 0
79 140 -141 0
-131 141 0
-79 141 0
-140 141 0
-79 -131 -140 0
-101 -133 142 0
-133 -141 142 0
-101 -141 142 0
101 133 -142 0
133 141 -142 0
101 141 -142 0
-133 142 0
-101 142 0
-141 142 0
-101 -133 -141 0
-94 -132 143 0
-132 -142 143 0
-94 -142 143 0
94 132 -143 0
132 142 -143 0
94 142 -143 0
-132 143 0
-94 143 0
-142 143 0
-94 -132 -142 0
-90 -143 0
-90 143 0
90 -143 0
-108 -144 0
-117 -144 0
108 117 144 0
108 117 -145 0
-108 -117 -145 0
-108 117 145 0
108 -117 145 0
144 -146 0
-78 -146 0
78 -144 146 0
78 -144 -147 0
-78 144 -147 0
78 144 147 0
-78 -144 147 0
146 -148 0
-59 -148 0
59 -146 148 0
59 -146 -149 0
-59 146 -149 0
59 146 149 0
-59 -146 149 0
148 -150 0
-57 -150 0
57 -148 150 0
57 -148 -151 0
-57 148 -151 0
57 148 151 0
-57 -148 151 0
150 -152 0
-135 -152 0
135 -150 152 0
135 -150 -153 0
-135 150 -153 0
135 150 153 0
-135 -150 153 0
152 -154 0
-137 -154 0
137 -152 154 0
137 -152 -155 0
-137 152 -155 0
137 152 155 0
-137 -152 155 0
154 -156 0
-139 -156 0
139 -154 156 0
139 -154 -157 0
-139 154 -157 0
139 154 157 0
-139 -154 157 0
156 -158 0
-156 158 0
-156 -159 0
156 159 0
158 -160 0
-158 160 0
-109 -158 0
109 158 0
-105 160 0
105 -160 0
-98 -160 0
98 160 0
-86 105 0
86 -105 0
-80 -105 0
80 105 0
86 -102 0
-86 102 0
-86 -95 0
86 95 0
-91 102 0
91 -102 0
-102 -161 0
102 161 0
-162 -163 0
-163 -164 0
162 163 164 0
162 164 -165 0
-162 -164 -165 0
-162 164 165 0
162 -164 165 0
163 -167 0
-166 -167 0
-163 166 167 0
-163 166 -168 0
163 -166 -168 0
163 166 168 0
-163 -166 168 0
167 -169 0
-167 169 0
-167 -170 0
167 170 0
169 -171 0
-169 171 0
-169 -172 0
169 172 0
171 -173 0
-171 173 0
-171 -174 0
171 174 0
173 -175 0
-173 175 0
-173 -176 0
173 176 0
175 -177 0
-175 177 0
-175 -178 0
175 178 0
166 -179 0
162 -179 0
-162 -166 179 0
-162 -166 -180 0
162 166 -180 0
162 -166 180 0
-162 166 180 0
-164 -179 181 0
164 -181 0
179 -181 0
164 179 -181 0
-181 -182 0
164 -181 -182 0
179 -181 -182 0
-164 181 182 0
-179 181 182 0
164 179 -182 0
55 -166 -181 0
-55 166 0
-55 181 0
-55 166 181 0
-54 -55 0
-54 -55 166 0
-54 -55 181 0
54 55 -166 0
54 55 -181 0
-54 166 181 0
53 -55 0
-53 55 0
-52 182 0
-52 162 0
52 -162 -182 0
-51 -162 -182 0
-51 162 182 0
51 162 -182 0
51 -162 182 0
50 -54 -164 0
50 -52 -54 0
50 -52 -164 0
-50 54 164 0
-50 52 54 0
-50 52 164 0
-49 -50 54 0
-49 -50 164 0
-49 -50 52 0
49 50 -54 0
49 50 -164 0
49 50 -52 0
49 -52 -54 -164 0
-49 52 54 164 0
48 -53 -166 0
48 -50 -53 0
48 -50 -166 0
-48 53 166 0
-48 50 53 0
-48 50 166 0
-47 -48 53 0
-47 -48 166 0
-47 -48 50 0
47 48 -53 0
47 48 -166 0
47 48 -50 0
47 -50 -53 -166 0
-47 50 53 166 0
46 -48 0
-46 48 0
-45 49 0
-45 162 0
45 -49 -162 0
-44 -49 -162 0
-44 49 162 0
44 -49 162 0
44 49 -162 0
43 -47 -164 0
43 -45 -47 0
43 -45 -164 0
-43 47 164 0
-43 45 47 0
-43 45 164 0
-42 -43 47 0
-42 -43 164 0
-42 -43 45 0
42 43 -47 0
42 43 -164 0
42 43 -45 0
42 -45 -47 -164 0
-42 45 47 164 0
41 -46 -166 0
41 -43 -46 0
41 -43 -166 0
-41 46 166 0
-41 43 46 0
-41 43 166 0
-40 -41 46 0
-40 -41 166 0
-40 -41 43 0
40 41 -46 0
40 41 -166 0
40 41 -43 0
40 -43 -46 -166 0
-40 43 46 166 0
39 -41 0
-39 41 0
-38 42 0
-38 162 0
38 -42 -162 0
-37 -42 -162 0
-37 42 162 0
37 -42 162 0
37 42 -162 0
36 -40 -164 0
36 -38 -40 0
36 -38 -164 0
-36 40 164 0
-36 38 40 0
-36 38 164 0
-35 -36 40 0
-35 -36 164 0
-35 -36 38 0
35 36 -40 0
35 36 -164 0
35 36 -38 0
35 -38 -40 -164 0
-35 38 40 164 0
-39 -166 0
-36 -39 0
-36 -166 0
34 -39 0
34 -166 0
34 -36 0
34 -36 -39 -166 0
-34 36 39 166 0
-33 -162 0
-33 -164 0
33 162 164 0
-32 162 164 0
-32 -162 -164 0
32 -162 164 0
32 162 -164 0
-31 33 0
-31 -180 0
31 -33 180 0
-30 -33 180 0
-30 33 -180 0
30 33 180 0
30 -33 -180 0
-29 31 0
-29 -51 0
29 -31 51 0
-28 -31 51 0
-28 31 -51 0
28 31 51 0
28 -31 -51 0
-27 29 0
-27 -44 0
27 -29 44 0
-26 -29 44 0
-26 29 -44 0
26 29 44 0
26 -29 -44 0
-25 27 0
-25 -37 0
25 -27 37 0
-24 -27 37 0
-24 27 -37 0
24 27 37 0
24 -27 -37 0
-23 25 0
-23 -35 0
23 -25 35 0
-22 -25 35 0
-22 25 -35 0
22 25 35 0
22 -25 -35 0
-21 23 0
-21 -34 0
21 -23 34 0
-20 -23 34 0
-20 23 -34 0
20 23 34 0
20 -23 -34 0
-19 21 0
19 -21 0
-18 -21 0
18 21 0
-17 19 0
17 -19 0
-16 -19 0
16 19 0
-15 17 0
15 -17 0
-14 -17 0
14 17 0
-13 15 0
13 -15 0
-12 -15 0
12 15 0
-11 13 0
11 -13 0
-10 -13 0
10 13 0
-9 11 0
9 -11 0
-8 -11 0
8 11 0
-7 108 0
-7 162 0
7 -108 -162 0
-108 162 0
108 -162 0
6 -117 -164 0
6 -7 -117 0
6 -7 -164 0
-6 117 164 0
-6 7 117 0
-6 7 164 0
6 -117 0
6 -164 0
6 -7 0
-7 -117 -164 0
5 -78 -180 0
5 -6 -78 0
5 -6 -180 0
-5 78 180 0
-5 6 78 0
-5 6 180 0
-5 78 0
-5 180 0
-5 6 0
6 78 180 0
4 -51 -59 0
4 -5 -59 0
4 -5 -51 0
-4 51 59 0
-4 5 59 0
-4 5 51 0
-4 59 0
-4 51 0
-4 5 0
5 51 59 0
3 -44 -57 0
3 -4 -57 0
3 -4 -44 0
-3 44 57 0
-3 4 57 0
-3 4 44 0
3 -57 0
3 -44 0
3 -4 0
-4 -44 -57 0
2 -37 -135 0
2 -3 -135 0
2 -3 -37 0
-2 37 135 0
-2 3 135 0
-2 3 37 0
-2 135 0
-2 37 0
-2 3 0
3 37 135 0
1 -35 -137 0
1 -2 -137 0
1 -2 -35 0
-1 35 137 0
-1 2 137 0
-1 2 35 0
1 -137 0
1 -35 0
1 -2 0
-2 -35 -137 0
-34 -139 0
-1 -139 0
-1 -34 0
1 34 139 0
